784 1512
1 2 3
1 29 5
2 3 4
2 30 1
3 4 2
3 31 1
4 5 2
4 32 1
5 6 1
5 33 3
6 7 5
6 34 4
7 8 2
7 35 5
8 9 4
8 36 5
9 10 4
9 37 3
10 11 2
10 38 1
11 12 5
11 39 1
12 13 3
12 40 3
13 14 3
13 41 2
14 15 2
14 42 1
15 16 3
15 43 4
16 17 4
16 44 5
17 18 5
17 45 5
18 19 4
18 46 3
19 20 1
19 47 4
20 21 5
20 48 5
21 22 1
21 49 1
22 23 1
22 50 1
23 24 4
23 51 1
24 25 4
24 52 1
25 26 3
25 53 5
26 27 4
26 54 2
27 28 3
27 55 1
28 56 3
29 30 3
29 57 2
30 31 3
30 58 4
31 32 4
31 59 3
32 33 3
32 60 4
33 34 1
33 61 1
34 35 4
34 62 3
35 36 2
35 63 2
36 37 4
36 64 1
37 38 2
37 65 1
38 39 2
38 66 5
39 40 3
39 67 4
40 41 3
40 68 4
41 42 1
41 69 5
42 43 4
42 70 3
43 44 3
43 71 2
44 45 2
44 72 5
45 46 3
45 73 5
46 47 4
46 74 4
47 48 3
47 75 4
48 49 3
48 76 2
49 50 4
49 77 3
50 51 4
50 78 4
51 52 2
51 79 5
52 53 4
52 80 3
53 54 5
53 81 1
54 55 5
54 82 5
55 56 2
55 83 1
56 84 2
57 58 5
57 85 1
58 59 2
58 86 1
59 60 3
59 87 5
60 61 3
60 88 2
61 62 5
61 89 5
62 63 3
62 90 4
63 64 3
63 91 5
64 65 4
64 92 5
65 66 1
65 93 3
66 67 2
66 94 4
67 68 3
67 95 4
68 69 1
68 96 2
69 70 1
69 97 5
70 71 5
70 98 1
71 72 5
71 99 1
72 73 5
72 100 1
73 74 2
73 101 1
74 75 2
74 102 3
75 76 2
75 103 4
76 77 2
76 104 4
77 78 4
77 105 1
78 79 4
78 106 1
79 80 4
79 107 5
80 81 1
80 108 3
81 82 5
81 109 4
82 83 1
82 110 1
83 84 5
83 111 4
84 112 2
85 86 2
85 113 3
86 87 4
86 114 1
87 88 2
87 115 5
88 89 1
88 116 5
89 90 5
89 117 1
90 91 3
90 118 3
91 92 5
91 119 2
92 93 2
92 120 4
93 94 3
93 121 2
94 95 5
94 122 1
95 96 1
95 123 5
96 97 3
96 124 5
97 98 5
97 125 5
98 99 5
98 126 4
99 100 5
99 127 4
100 101 5
100 128 2
101 102 2
101 129 3
102 103 3
102 130 3
103 104 4
103 131 3
104 105 2
104 132 3
105 106 4
105 133 1
106 107 3
106 134 5
107 108 2
107 135 5
108 109 1
108 136 2
109 110 1
109 137 1
110 111 3
110 138 5
111 112 5
111 139 3
112 140 3
113 114 1
113 141 4
114 115 4
114 142 3
115 116 1
115 143 2
116 117 3
116 144 4
117 118 3
117 145 5
118 119 1
118 146 1
119 120 3
119 147 1
120 121 1
120 148 2
121 122 3
121 149 3
122 123 5
122 150 4
123 124 5
123 151 4
124 125 5
124 152 4
125 126 2
125 153 3
126 127 1
126 154 1
127 128 1
127 155 3
128 129 4
128 156 5
129 130 3
129 157 5
130 131 3
130 158 1
131 132 2
131 159 4
132 133 3
132 160 1
133 134 1
133 161 1
134 135 5
134 162 4
135 136 4
135 163 5
136 137 3
136 164 2
137 138 1
137 165 3
138 139 2
138 166 5
139 140 1
139 167 1
140 168 3
141 142 4
141 169 4
142 143 5
142 170 5
143 144 1
143 171 1
144 145 3
144 172 2
145 146 2
145 173 3
146 147 3
146 174 2
147 148 5
147 175 1
148 149 2
148 176 2
149 150 1
149 177 4
150 151 1
150 178 5
151 152 5
151 179 2
152 153 2
152 180 5
153 154 3
153 181 5
154 155 2
154 182 4
155 156 5
155 183 3
156 157 4
156 184 5
157 158 5
157 185 3
158 159 3
158 186 3
159 160 3
159 187 2
160 161 5
160 188 4
161 162 1
161 189 5
162 163 1
162 190 5
163 164 2
163 191 3
164 165 4
164 192 1
165 166 5
165 193 2
166 167 2
166 194 1
167 168 3
167 195 4
168 196 5
169 170 2
169 197 5
170 171 1
170 198 4
171 172 1
171 199 2
172 173 2
172 200 5
173 174 1
173 201 2
174 175 1
174 202 1
175 176 5
175 203 1
176 177 5
176 204 2
177 178 3
177 205 4
178 179 5
178 206 3
179 180 3
179 207 3
180 181 5
180 208 3
181 182 2
181 209 1
182 183 4
182 210 1
183 184 3
183 211 4
184 185 3
184 212 4
185 186 3
185 213 5
186 187 2
186 214 1
187 188 3
187 215 5
188 189 5
188 216 5
189 190 2
189 217 5
190 191 5
190 218 4
191 192 1
191 219 2
192 193 4
192 220 5
193 194 1
193 221 4
194 195 3
194 222 5
195 196 1
195 223 3
196 224 4
197 198 1
197 225 5
198 199 2
198 226 2
199 200 1
199 227 2
200 201 2
200 228 1
201 202 2
201 229 2
202 203 5
202 230 3
203 204 4
203 231 3
204 205 5
204 232 4
205 206 2
205 233 5
206 207 4
206 234 3
207 208 2
207 235 4
208 209 2
208 236 5
209 210 2
209 237 4
210 211 1
210 238 3
211 212 4
211 239 4
212 213 1
212 240 4
213 214 2
213 241 3
214 215 1
214 242 4
215 216 2
215 243 4
216 217 3
216 244 4
217 218 3
217 245 5
218 219 5
218 246 2
219 220 4
219 247 1
220 221 1
220 248 4
221 222 4
221 249 5
222 223 5
222 250 1
223 224 2
223 251 5
224 252 1
225 226 1
225 253 1
226 227 3
226 254 1
227 228 2
227 255 3
228 229 1
228 256 5
229 230 1
229 257 1
230 231 3
230 258 2
231 232 3
231 259 2
232 233 4
232 260 1
233 234 2
233 261 4
234 235 3
234 262 4
235 236 4
235 263 5
236 237 1
236 264 5
237 238 2
237 265 2
238 239 5
238 266 1
239 240 4
239 267 1
240 241 3
240 268 3
241 242 5
241 269 3
242 243 5
242 270 2
243 244 5
243 271 1
244 245 5
244 272 3
245 246 5
245 273 4
246 247 5
246 274 3
247 248 5
247 275 3
248 249 5
248 276 3
249 250 2
249 277 3
250 251 1
250 278 3
251 252 1
251 279 2
252 280 4
253 254 4
253 281 5
254 255 5
254 282 4
255 256 3
255 283 4
256 257 5
256 284 4
257 258 2
257 285 1
258 259 1
258 286 4
259 260 2
259 287 5
260 261 3
260 288 4
261 262 5
261 289 2
262 263 3
262 290 5
263 264 5
263 291 4
264 265 5
264 292 2
265 266 1
265 293 2
266 267 4
266 294 2
267 268 2
267 295 1
268 269 1
268 296 2
269 270 4
269 297 1
270 271 1
270 298 3
271 272 3
271 299 3
272 273 3
272 300 5
273 274 4
273 301 4
274 275 1
274 302 4
275 276 2
275 303 1
276 277 3
276 304 1
277 278 2
277 305 4
278 279 5
278 306 3
279 280 5
279 307 1
280 308 5
281 282 1
281 309 3
282 283 1
282 310 5
283 284 3
283 311 2
284 285 5
284 312 4
285 286 4
285 313 4
286 287 2
286 314 2
287 288 2
287 315 5
288 289 4
288 316 1
289 290 4
289 317 4
290 291 4
290 318 5
291 292 2
291 319 1
292 293 1
292 320 4
293 294 4
293 321 5
294 295 4
294 322 5
295 296 5
295 323 5
296 297 5
296 324 5
297 298 4
297 325 5
298 299 2
298 326 5
299 300 4
299 327 1
300 301 4
300 328 4
301 302 3
301 329 4
302 303 2
302 330 3
303 304 5
303 331 2
304 305 3
304 332 5
305 306 3
305 333 1
306 307 5
306 334 2
307 308 3
307 335 4
308 336 2
309 310 5
309 337 5
310 311 2
310 338 5
311 312 5
311 339 3
312 313 5
312 340 1
313 314 3
313 341 5
314 315 2
314 342 3
315 316 1
315 343 4
316 317 1
316 344 2
317 318 3
317 345 4
318 319 1
318 346 3
319 320 1
319 347 2
320 321 5
320 348 1
321 322 3
321 349 5
322 323 1
322 350 5
323 324 3
323 351 2
324 325 1
324 352 3
325 326 3
325 353 5
326 327 2
326 354 1
327 328 3
327 355 4
328 329 5
328 356 4
329 330 1
329 357 5
330 331 4
330 358 5
331 332 5
331 359 2
332 333 1
332 360 4
333 334 5
333 361 4
334 335 5
334 362 4
335 336 5
335 363 2
336 364 3
337 338 1
337 365 2
338 339 4
338 366 1
339 340 4
339 367 2
340 341 2
340 368 1
341 342 3
341 369 2
342 343 4
342 370 3
343 344 4
343 371 4
344 345 5
344 372 1
345 346 3
345 373 3
346 347 4
346 374 3
347 348 3
347 375 2
348 349 3
348 376 3
349 350 4
349 377 5
350 351 5
350 378 3
351 352 2
351 379 5
352 353 5
352 380 4
353 354 4
353 381 1
354 355 1
354 382 2
355 356 3
355 383 4
356 357 5
356 384 5
357 358 2
357 385 3
358 359 4
358 386 4
359 360 3
359 387 2
360 361 2
360 388 2
361 362 4
361 389 3
362 363 2
362 390 5
363 364 5
363 391 3
364 392 5
365 366 2
365 393 1
366 367 1
366 394 3
367 368 4
367 395 3
368 369 5
368 396 4
369 370 1
369 397 2
370 371 5
370 398 2
371 372 1
371 399 2
372 373 1
372 400 3
373 374 3
373 401 5
374 375 2
374 402 4
375 376 2
375 403 4
376 377 3
376 404 1
377 378 3
377 405 1
378 379 5
378 406 1
379 380 1
379 407 2
380 381 4
380 408 2
381 382 1
381 409 1
382 383 1
382 410 5
383 384 5
383 411 2
384 385 2
384 412 2
385 386 5
385 413 2
386 387 4
386 414 1
387 388 1
387 415 3
388 389 5
388 416 5
389 390 2
389 417 2
390 391 3
390 418 5
391 392 5
391 419 1
392 420 5
393 394 5
393 421 5
394 395 3
394 422 3
395 396 4
395 423 5
396 397 1
396 424 1
397 398 3
397 425 2
398 399 1
398 426 3
399 400 2
399 427 2
400 401 3
400 428 4
401 402 4
401 429 1
402 403 3
402 430 5
403 404 4
403 431 1
404 405 1
404 432 5
405 406 3
405 433 2
406 407 5
406 434 5
407 408 2
407 435 3
408 409 4
408 436 3
409 410 4
409 437 4
410 411 3
410 438 5
411 412 1
411 439 5
412 413 2
412 440 2
413 414 1
413 441 3
414 415 5
414 442 4
415 416 4
415 443 4
416 417 2
416 444 1
417 418 5
417 445 2
418 419 2
418 446 1
419 420 5
419 447 5
420 448 3
421 422 1
421 449 4
422 423 2
422 450 4
423 424 5
423 451 2
424 425 3
424 452 1
425 426 5
425 453 3
426 427 2
426 454 2
427 428 5
427 455 5
428 429 2
428 456 2
429 430 4
429 457 4
430 431 5
430 458 4
431 432 5
431 459 2
432 433 5
432 460 2
433 434 5
433 461 5
434 435 4
434 462 4
435 436 2
435 463 4
436 437 5
436 464 1
437 438 1
437 465 5
438 439 3
438 466 4
439 440 1
439 467 3
440 441 3
440 468 3
441 442 5
441 469 5
442 443 5
442 470 1
443 444 3
443 471 3
444 445 4
444 472 4
445 446 2
445 473 5
446 447 4
446 474 1
447 448 2
447 475 2
448 476 5
449 450 1
449 477 1
450 451 3
450 478 4
451 452 3
451 479 4
452 453 1
452 480 3
453 454 4
453 481 3
454 455 2
454 482 4
455 456 4
455 483 4
456 457 5
456 484 2
457 458 5
457 485 1
458 459 4
458 486 3
459 460 2
459 487 3
460 461 3
460 488 4
461 462 2
461 489 4
462 463 2
462 490 2
463 464 2
463 491 1
464 465 2
464 492 3
465 466 2
465 493 5
466 467 1
466 494 2
467 468 5
467 495 5
468 469 2
468 496 5
469 470 4
469 497 2
470 471 4
470 498 4
471 472 2
471 499 4
472 473 3
472 500 2
473 474 2
473 501 2
474 475 3
474 502 5
475 476 4
475 503 4
476 504 3
477 478 2
477 505 5
478 479 4
478 506 2
479 480 5
479 507 5
480 481 5
480 508 4
481 482 2
481 509 4
482 483 4
482 510 2
483 484 1
483 511 1
484 485 4
484 512 1
485 486 2
485 513 3
486 487 1
486 514 3
487 488 3
487 515 4
488 489 5
488 516 2
489 490 4
489 517 3
490 491 2
490 518 4
491 492 2
491 519 2
492 493 1
492 520 5
493 494 2
493 521 5
494 495 1
494 522 3
495 496 2
495 523 3
496 497 4
496 524 1
497 498 2
497 525 1
498 499 3
498 526 4
499 500 2
499 527 5
500 501 4
500 528 5
501 502 5
501 529 1
502 503 1
502 530 3
503 504 5
503 531 1
504 532 3
505 506 3
505 533 1
506 507 2
506 534 2
507 508 2
507 535 2
508 509 1
508 536 3
509 510 2
509 537 2
510 511 1
510 538 3
511 512 1
511 539 3
512 513 2
512 540 2
513 514 5
513 541 2
514 515 3
514 542 5
515 516 3
515 543 4
516 517 1
516 544 2
517 518 4
517 545 3
518 519 4
518 546 3
519 520 5
519 547 4
520 521 3
520 548 2
521 522 4
521 549 3
522 523 5
522 550 5
523 524 1
523 551 2
524 525 5
524 552 1
525 526 1
525 553 3
526 527 3
526 554 1
527 528 1
527 555 5
528 529 1
528 556 1
529 530 4
529 557 5
530 531 5
530 558 2
531 532 5
531 559 2
532 560 2
533 534 2
533 561 1
534 535 3
534 562 2
535 536 4
535 563 5
536 537 3
536 564 3
537 538 4
537 565 5
538 539 4
538 566 5
539 540 1
539 567 5
540 541 3
540 568 4
541 542 5
541 569 1
542 543 1
542 570 5
543 544 4
543 571 3
544 545 1
544 572 2
545 546 1
545 573 4
546 547 1
546 574 3
547 548 3
547 575 3
548 549 2
548 576 1
549 550 4
549 577 4
550 551 1
550 578 5
551 552 1
551 579 4
552 553 1
552 580 5
553 554 3
553 581 2
554 555 3
554 582 5
555 556 1
555 583 5
556 557 5
556 584 2
557 558 5
557 585 4
558 559 3
558 586 3
559 560 1
559 587 1
560 588 3
561 562 1
561 589 2
562 563 1
562 590 4
563 564 3
563 591 3
564 565 5
564 592 4
565 566 3
565 593 5
566 567 3
566 594 5
567 568 1
567 595 3
568 569 3
568 596 1
569 570 5
569 597 3
570 571 1
570 598 2
571 572 2
571 599 3
572 573 5
572 600 1
573 574 4
573 601 5
574 575 5
574 602 1
575 576 3
575 603 1
576 577 2
576 604 3
577 578 2
577 605 4
578 579 1
578 606 3
579 580 5
579 607 3
580 581 3
580 608 1
581 582 4
581 609 1
582 583 5
582 610 5
583 584 5
583 611 1
584 585 4
584 612 3
585 586 2
585 613 2
586 587 2
586 614 3
587 588 2
587 615 2
588 616 5
589 590 3
589 617 1
590 591 1
590 618 5
591 592 1
591 619 4
592 593 2
592 620 5
593 594 5
593 621 1
594 595 1
594 622 5
595 596 3
595 623 5
596 597 3
596 624 4
597 598 3
597 625 3
598 599 5
598 626 5
599 600 5
599 627 5
600 601 4
600 628 1
601 602 5
601 629 4
602 603 5
602 630 4
603 604 4
603 631 3
604 605 3
604 632 3
605 606 2
605 633 3
606 607 2
606 634 1
607 608 1
607 635 3
608 609 5
608 636 4
609 610 5
609 637 4
610 611 4
610 638 5
611 612 5
611 639 5
612 613 3
612 640 4
613 614 5
613 641 1
614 615 2
614 642 1
615 616 2
615 643 4
616 644 4
617 618 3
617 645 4
618 619 3
618 646 1
619 620 1
619 647 1
620 621 5
620 648 4
621 622 1
621 649 5
622 623 4
622 650 1
623 624 1
623 651 2
624 625 1
624 652 2
625 626 4
625 653 2
626 627 3
626 654 3
627 628 3
627 655 4
628 629 2
628 656 4
629 630 2
629 657 5
630 631 2
630 658 2
631 632 3
631 659 3
632 633 2
632 660 5
633 634 1
633 661 4
634 635 3
634 662 5
635 636 2
635 663 2
636 637 4
636 664 1
637 638 3
637 665 1
638 639 3
638 666 2
639 640 1
639 667 2
640 641 4
640 668 3
641 642 5
641 669 3
642 643 3
642 670 2
643 644 3
643 671 2
644 672 4
645 646 1
645 673 2
646 647 5
646 674 5
647 648 3
647 675 2
648 649 5
648 676 5
649 650 5
649 677 1
650 651 3
650 678 3
651 652 4
651 679 1
652 653 4
652 680 5
653 654 3
653 681 4
654 655 4
654 682 2
655 656 1
655 683 1
656 657 1
656 684 5
657 658 1
657 685 5
658 659 5
658 686 2
659 660 2
659 687 4
660 661 3
660 688 5
661 662 4
661 689 5
662 663 1
662 690 3
663 664 3
663 691 3
664 665 1
664 692 4
665 666 5
665 693 2
666 667 5
666 694 2
667 668 2
667 695 4
668 669 4
668 696 2
669 670 1
669 697 4
670 671 5
670 698 4
671 672 3
671 699 4
672 700 2
673 674 1
673 701 1
674 675 5
674 702 1
675 676 2
675 703 3
676 677 2
676 704 4
677 678 5
677 705 4
678 679 4
678 706 4
679 680 2
679 707 1
680 681 2
680 708 5
681 682 3
681 709 3
682 683 1
682 710 2
683 684 2
683 711 2
684 685 1
684 712 3
685 686 2
685 713 4
686 687 5
686 714 1
687 688 1
687 715 4
688 689 1
688 716 3
689 690 5
689 717 4
690 691 5
690 718 2
691 692 4
691 719 3
692 693 1
692 720 3
693 694 4
693 721 5
694 695 2
694 722 3
695 696 4
695 723 1
696 697 1
696 724 2
697 698 2
697 725 2
698 699 5
698 726 5
699 700 4
699 727 3
700 728 2
701 702 1
701 729 5
702 703 1
702 730 4
703 704 1
703 731 4
704 705 4
704 732 1
705 706 5
705 733 4
706 707 1
706 734 3
707 708 2
707 735 5
708 709 2
708 736 3
709 710 2
709 737 5
710 711 5
710 738 5
711 712 3
711 739 3
712 713 4
712 740 2
713 714 5
713 741 3
714 715 2
714 742 3
715 716 4
715 743 2
716 717 5
716 744 3
717 718 5
717 745 1
718 719 2
718 746 1
719 720 5
719 747 3
720 721 4
720 748 4
721 722 4
721 749 5
722 723 4
722 750 5
723 724 2
723 751 1
724 725 5
724 752 1
725 726 4
725 753 2
726 727 1
726 754 3
727 728 4
727 755 2
728 756 3
729 730 2
729 757 5
730 731 2
730 758 2
731 732 2
731 759 5
732 733 1
732 760 1
733 734 1
733 761 4
734 735 2
734 762 1
735 736 3
735 763 3
736 737 4
736 764 5
737 738 2
737 765 3
738 739 4
738 766 2
739 740 4
739 767 2
740 741 2
740 768 4
741 742 1
741 769 1
742 743 4
742 770 3
743 744 4
743 771 1
744 745 5
744 772 1
745 746 3
745 773 3
746 747 2
746 774 5
747 748 1
747 775 4
748 749 4
748 776 2
749 750 5
749 777 4
750 751 4
750 778 5
751 752 1
751 779 1
752 753 3
752 780 3
753 754 1
753 781 3
754 755 4
754 782 4
755 756 4
755 783 1
756 784 4
757 758 4
758 759 2
759 760 3
760 761 5
761 762 3
762 763 3
763 764 1
764 765 3
765 766 5
766 767 2
767 768 1
768 769 3
769 770 3
770 771 2
771 772 3
772 773 4
773 774 5
774 775 3
775 776 5
776 777 2
777 778 3
778 779 2
779 780 3
780 781 3
781 782 1
782 783 5
783 784 1
